(synth-fun lemma ((x Int) (y Int) (z Int) (nil Int)) Bool

           ((Start Bool) (Loc Int) (LocLeaf Int))

           ((Start Bool (
                   (=> Start Start)
                   (lseg Loc Loc)))
            (Loc Int (LocLeaf))
            (LocLeaf Int (x y z nil)))

)

(synth-fun rswitch () Int

           ((Start Int))
           ((Start Int (0)))

)
